// 500nm x 100nm x 1.2nm track
setgridsize(500,63,1)
setcellsize(1e-9,1.6e-9,1.2e-9)

a := cuboid(500e-9, 100e-9, 1.2e-9)

defregion(0,a)

// set parameters
Aex.setregion(0, 11e-12)
alpha.setregion(0, 0.01)
Xi.setregion(0, 0.01)
Msat.setregion(0, 7.95e+5)
Ku1.setregion(0, 4.05e+5)
anisU.setRegion(0, vector(0, 0, 1))
Dind.setRegion(0, 0.25e-3)

//m.loadfile("m_starter.ovf")
m = TwoDomain(0,0,1,  0,1,0,  0,0,-1)

//Converting SHE into Mumax3 STT
lambda = 1
Pol = 0.05 // to set thetaSH 0.05
epsilonprime = 0

//SHE related parameters(Limited to Domain Wall track)
sizeZ:= 1.2e-9
hcut := 1.0546e-34
thetaSH := 0.05
e := 1.6e-19
Ms:= 1.5/(pi*4e-7)
mull:=2
fixedlayer.setregion(0, vector(0,1,0) )


relax()

// keep DW centered in simulation window by shifting simulation window
ext_centerWall(2)

//autosnapshot(m, 10e-12)

// save magnetization state and simulation window shift amount to table, use to calculate position
for i := 0; i <= 499; i += 1 {
tableadd(Crop(m.comp(2), i, (i+1),30,32,0,1))
}
tableadd(ext_dwpos)
tableadd(ext_dwspeed)
tableautosave(1e-11)

//autosave(m,10e-11)

// simulate simple constant current pulse
Jelec:= 4.0e+09
j.setregion(0, vector(0, 0,Jelec))
B_ext.setregion(0, vector(-5e-3,mull*hcut*thetaSH*Jelec/(2*e*Ms*sizeZ),0))

run(100e-9)

Jelec = 0
j.setregion(0, vector(0, 0,Jelec))
B_ext.setregion(0, vector(0, mull*hcut*thetaSH*Jelec/(2*e*Ms*sizeZ),0))

run(100e-9)

